
Gurobi 9.0.1 (linux64) logging started Fri May  1 00:40:28 2020

Gurobi Optimizer version 9.0.1 build v9.0.1rc0 (linux64)
Optimize a model with 1120 rows, 842 columns and 4212 nonzeros
Model fingerprint: 0x46a944b9
Variable types: 0 continuous, 842 integer (810 binary)
Coefficient statistics:
  Matrix range     [1e+00, 8e+00]
  Objective range  [2e+00, 1e+02]
  Bounds range     [1e+00, 1e+00]
  RHS range        [1e+00, 9e+00]

User MIP start produced solution with objective 571 (0.00s)
Loaded user MIP start with objective 571

Presolve removed 344 rows and 252 columns
Presolve time: 0.01s
Presolved: 776 rows, 590 columns, 3168 nonzeros
Variable types: 0 continuous, 590 integer (562 binary)

Root relaxation: objective 4.127500e+02, 824 iterations, 0.04 seconds

    Nodes    |    Current Node    |     Objective Bounds      |     Work
 Expl Unexpl |  Obj  Depth IntInf | Incumbent    BestBd   Gap | It/Node Time

     0     0  412.75000    0   32  571.00000  412.75000  27.7%     -    0s
     0     0  536.00000    0   54  571.00000  536.00000  6.13%     -    0s
     0     0  536.00000    0   54  571.00000  536.00000  6.13%     -    0s
     0     0  536.45000    0   53  571.00000  536.45000  6.05%     -    0s
     0     0  536.58929    0   73  571.00000  536.58929  6.03%     -    0s
     0     0  541.33333    0  118  571.00000  541.33333  5.20%     -    0s
     0     0  542.25000    0   83  571.00000  542.25000  5.04%     -    0s
     0     0  542.25000    0   81  571.00000  542.25000  5.04%     -    0s
     0     0  542.25000    0   86  571.00000  542.25000  5.04%     -    0s
     0     0  542.80000    0   85  571.00000  542.80000  4.94%     -    0s
     0     0  542.80000    0   89  571.00000  542.80000  4.94%     -    0s
     0     0  542.80000    0   90  571.00000  542.80000  4.94%     -    0s
     0     0  542.80000    0   85  571.00000  542.80000  4.94%     -    0s
     0     0  542.80000    0   87  571.00000  542.80000  4.94%     -    0s
     0     0  542.80000    0   87  571.00000  542.80000  4.94%     -    0s
     0     0  542.80000    0   72  571.00000  542.80000  4.94%     -    0s
     0     0  542.80000    0   73  571.00000  542.80000  4.94%     -    0s
     0     0  542.80000    0   70  571.00000  542.80000  4.94%     -    0s
     0     0  542.80000    0   70  571.00000  542.80000  4.94%     -    0s
     0     0  542.80000    0   55  571.00000  542.80000  4.94%     -    0s
     0     0  542.80000    0   77  571.00000  542.80000  4.94%     -    0s
     0     0  542.80000    0   58  571.00000  542.80000  4.94%     -    0s
     0     0  542.80000    0   58  571.00000  542.80000  4.94%     -    0s
     0     2  542.80000    0   58  571.00000  542.80000  4.94%     -    0s
H  192   129                     566.0000000  545.00000  3.71%  61.7    1s
   533   303  547.51920   10  236  566.00000  547.51920  3.27%   103    5s
   895   403  561.30952   27  120  566.00000  547.51920  3.27%   107   10s
H 1100   350                     560.0000000  547.51920  2.23%   116   12s
  1210   359  558.56514   24  176  560.00000  547.51920  2.23%   123   15s
  1572   437  550.38651   16  252  560.00000  548.04196  2.14%   127   20s
  1897   530     cutoff   23       560.00000  548.67856  2.02%   131   25s
  2214   606  552.90446   22  228  560.00000  549.40000  1.89%   137   30s
  2548   701  551.90553   26  234  560.00000  549.75787  1.83%   140   35s
  2851   773  558.32500   27  118  560.00000  550.06799  1.77%   144   40s
  3184   822  553.23431   17  263  560.00000  550.72035  1.66%   147   45s
  3535   891  555.68816   20  243  560.00000  551.22667  1.57%   150   50s
  3858   904  557.87982   30  111  560.00000  551.52883  1.51%   151   55s
  4246   912 infeasible   26       560.00000  551.97281  1.43%   152   60s
  4619   936  556.68644   17  197  560.00000  552.40909  1.36%   153   65s
  5050   947  554.20500   31  267  560.00000  552.92190  1.26%   152   70s
  5484   947  554.90962   22  242  560.00000  553.48000  1.16%   152   75s
  5890   935     cutoff   19       560.00000  553.79472  1.11%   152   80s
  6381   849  557.56014   30  161  560.00000  554.18030  1.04%   150   85s
  6832   802  557.05626   20  207  560.00000  554.57748  0.97%   148   90s
  7342   722  556.57555   32  205  560.00000  555.06795  0.88%   147   95s
  7917   633     cutoff   30       560.00000  555.47237  0.81%   146  100s
  8418   536  557.38603   23  154  560.00000  555.96676  0.72%   144  105s
  9027   337  557.46260   23  252  560.00000  557.06600  0.52%   143  110s

Cutting planes:
  Learned: 6
  Gomory: 7
  Cover: 18
  Implied bound: 100
  Projected implied bound: 2
  MIR: 15
  StrongCG: 3
  Flow cover: 179
  GUB cover: 1
  Inf proof: 34
  Zero half: 24
  RLT: 100
  Relax-and-lift: 1

Explored 9446 nodes (1316056 simplex iterations) in 111.97 seconds
Thread count was 1 (of 40 available processors)

Solution count 3: 560 566 571 

Optimal solution found (tolerance 1.00e-04)
Best objective 5.600000000000e+02, best bound 5.600000000000e+02, gap 0.0000%

User-callback calls 41489, time in user-callback 0.03 sec
